1597204751821049677502,4,1,2,08,14,1,2,010,10,1,2,011,8,1,2,015,3,1,2,015,6,1,2,05,9,1,2,014,6,1,2,012,1,1,2,07,14,1,2,015,14,1,2,09,7,1,2,02,13,1,2,012,4,1,2,04,9,1,2,013,15,1,2,09,15,1,2,07,7,1,2,07,6,1,2,013,4,1,2,05,4,1,2,011,8,1,2,013,14,1,2,011,11,1,2,010,8,1,2,015,2,1,2,010,3,1,2,014,9,1,2,05,9,1,2,011,8,1,2,013,13,1,2,011,5,1,2,011,7,1,2,013,6,1,2,05,5,1,2,06,10,1,2,08,15,1,2,06,12,1,2,06,12,1,2,07,13,1,2,07,2,1,2,05,5,1,2,02,6,1,2,07,9,1,2,014,9,1,2,07,4,1,2,05,10,1,2,05,14,1,2,015,9,1,2,04,9,1,2,0